

******************************************************************************
This program contains Ipopt, a library for large-scale nonlinear optimization.
 Ipopt is released as open source code under the Eclipse Public License (EPL).
         For more information visit http://projects.coin-or.org/Ipopt
******************************************************************************

This is Ipopt version 3.12.8, running with linear solver mumps.
NOTE: Other linear solvers might be more efficient (see Ipopt documentation).

Number of nonzeros in equality constraint Jacobian...:        7
Number of nonzeros in inequality constraint Jacobian.:        4
Number of nonzeros in Lagrangian Hessian.............:        6

Total number of variables............................:        5
                     variables with only lower bounds:        5
                variables with lower and upper bounds:        0
                     variables with only upper bounds:        0
Total number of equality constraints.................:        2
Total number of inequality constraints...............:        2
        inequality constraints with only lower bounds:        0
   inequality constraints with lower and upper bounds:        1
        inequality constraints with only upper bounds:        1

iter    objective    inf_pr   inf_du lg(mu)  ||d||  lg(rg) alpha_du alpha_pr  ls
   0  5.0000000e-01 1.51e+03 1.00e+00  -1.0 0.00e+00    -  0.00e+00 0.00e+00   0
   1  4.9904111e-01 1.50e+03 1.14e+01  -1.0 1.92e+02    -  3.17e-02 2.57e-03h  1
   2  4.8758710e-01 1.49e+03 5.13e+01  -1.0 2.47e+03    -  1.95e-04 2.05e-02f  1
   3  4.9394749e-01 1.03e+03 2.65e+01  -1.0 2.35e+03    -  5.60e-03 2.68e-01f  1
   4  2.2310234e-01 4.98e+02 1.07e+02  -1.0 3.01e+02    -  5.88e-01 1.00e+00h  1
   5  1.1036326e+01 4.07e+02 9.12e+04  -1.0 2.36e+02   2.0 4.41e-05 2.10e-01h  1
   6  1.1082455e+01 4.07e+02 9.06e+04  -1.0 2.87e+02   4.2 1.48e-01 1.73e-03h  1
   7  1.1083481e+01 4.07e+02 9.06e+04  -1.0 2.59e+02   3.8 3.03e-02 2.07e-05h  1
   8  1.1346257e+01 4.06e+02 1.01e+06  -1.0 8.67e+02   4.2 2.27e-02 9.34e-04h  1
   9  1.1564260e+01 4.48e+02 9.66e+05  -1.0 3.64e+03   3.7 5.05e-03 1.54e-03h  2
iter    objective    inf_pr   inf_du lg(mu)  ||d||  lg(rg) alpha_du alpha_pr  ls
  10  1.8788478e+01 4.45e+02 9.79e+05  -1.0 6.56e+02   3.2 2.61e-02 1.69e-02h  2
  11  2.4043257e+01 4.45e+02 9.60e+05  -1.0 7.27e+02   2.7 2.02e-02 7.23e-03h  1
  12  2.4078912e+01 4.45e+02 1.07e+06  -1.0 3.92e+02   3.2 1.68e-01 9.10e-05h  1
  13  2.5814586e+01 4.43e+02 1.05e+06  -1.0 5.59e+02   2.7 5.69e-02 3.99e-03h  1
  14  5.9249140e+01 4.08e+02 3.98e+06  -1.0 5.62e+02   2.2 8.68e-01 7.83e-02h  1
  15  4.4929201e+00 4.08e+02 2.67e+05  -1.0 4.47e+07    -  8.32e-06 1.22e-06f  1
  16  3.9453212e+00 4.08e+02 2.30e+05  -1.0 5.80e+04    -  6.41e-05 9.44e-06f  1
  17  3.9395568e+00 4.08e+02 2.29e+05  -1.0 9.55e+02    -  5.06e-04 7.33e-05h  1
  18  3.9350926e+00 4.08e+02 2.39e+05  -1.0 8.86e+02    -  7.11e-01 1.12e-03f  1
  19  2.7466721e-01 2.51e+01 2.66e+06  -1.0 8.85e+02    -  2.46e-02 9.30e-01f  1
iter    objective    inf_pr   inf_du lg(mu)  ||d||  lg(rg) alpha_du alpha_pr  ls
  20  2.3308432e-01 2.13e+01 2.26e+06  -1.0 5.32e+01    -  8.20e-02 1.51e-01h  1
  21  2.3176030e-01 2.12e+01 2.25e+06  -1.0 4.54e+01    -  6.97e-04 5.68e-03h  1
  22  2.3174631e-01 2.12e+01 2.24e+06  -1.0 4.26e+01   2.6 1.13e-01 6.05e-05h  1
  23  2.3175483e-01 2.12e+01 2.24e+06  -1.0 2.41e+02    -  8.38e-05 2.42e-05h  1
  24  2.4146760e-01 2.12e+01 2.24e+06  -1.0 5.39e+01    -  1.16e-06 1.80e-04h  1
  25  5.4239057e+01 7.75e-01 9.32e+04  -1.0 5.40e+01    -  1.83e-03 1.00e+00h  1
  26  5.5025181e+01 6.42e-07 3.44e+02  -1.0 7.86e-01    -  9.86e-01 1.00e+00h  1
  27  5.5100817e+01 8.40e-04 2.84e-03  -1.0 9.55e-01    -  1.00e+00 1.00e+00f  1
  28  5.5022997e+01 5.93e-04 1.99e-04  -2.5 1.18e+00    -  1.00e+00 1.00e+00f  1
  29  5.5017908e+01 8.70e-04 1.32e-04  -3.8 1.14e+00    -  1.00e+00 1.00e+00h  1
iter    objective    inf_pr   inf_du lg(mu)  ||d||  lg(rg) alpha_du alpha_pr  ls
  30  5.5017609e+01 4.44e-05 6.67e-06  -5.7 2.52e-01    -  1.00e+00 1.00e+00h  1
  31  5.5017611e+01 7.86e-02 1.19e-02  -5.7 2.17e+01    -  1.00e+00 5.00e-01h  2
  32  5.5017611e+01 7.76e-02 3.27e+00  -5.7 4.29e-02   2.2 1.00e+00 1.21e-02h  6
  33  5.5017609e+01 4.77e-07 1.14e-06  -5.7 1.16e-01    -  1.00e+00 1.00e+00h  1
  34  5.5017605e+01 5.93e-08 9.07e-09  -8.6 8.94e-03    -  1.00e+00 1.00e+00h  1
  35  5.5017605e+01 5.93e-08 9.11e-09  -8.6 1.20e+01    -  1.00e+00 3.05e-05h 16

Number of Iterations....: 35

                                   (scaled)                 (unscaled)
Objective...............:   5.5017604529660218e+01    5.5017604529660218e+01
Dual infeasibility......:   9.1093890904655199e-09    9.1093890904655199e-09
Constraint violation....:   5.9349702041799901e-08    5.9349702041799901e-08
Complementarity.........:   3.5002361973894274e-09    3.5002361973894274e-09
Overall NLP error.......:   5.9349702041799901e-08    5.9349702041799901e-08


Number of objective function evaluations             = 86
Number of objective gradient evaluations             = 37
Number of equality constraint evaluations            = 86
Number of inequality constraint evaluations          = 86
Number of equality constraint Jacobian evaluations   = 37
Number of inequality constraint Jacobian evaluations = 37
Number of Lagrangian Hessian evaluations             = 36
Total CPU secs in IPOPT (w/o function evaluations)   =      0.007
Total CPU secs in NLP function evaluations           =      0.000

EXIT: Solved To Acceptable Level.
 
Ipopt 3.12.8: Solved To Acceptable Level.
